p cnf 71 260
-2 3 -4 0
2 -3 -4 0
-2 -3 4 0
2 3 4 0
5 -4 0
5 4 0
-5 3 -6 0
5 -3 -6 0
-5 -3 6 0
5 3 6 0
-8 7 0
-8 1 0
-7 -1 8 0
-9 6 0
-9 -8 0
-6 8 9 0
10 -1 0
10 -9 0
1 9 -10 0
11 -10 0
11 -4 0
10 4 -11 0
12 6 0
12 -8 0
-6 8 -12 0
-11 -12 -13 0
11 12 -13 0
-11 12 13 0
11 -12 13 0
-14 10 0
-14 9 0
-10 -9 14 0
-15 13 0
-15 -14 0
-13 14 15 0
-18 16 0
-18 17 0
-16 -17 18 0
-19 6 0
-19 -18 0
-6 18 19 0
-20 -1 0
-20 2 0
1 -2 20 0
-21 1 -22 0
21 -1 -22 0
-21 -1 22 0
21 1 22 0
-23 16 0
-23 17 0
-16 -17 23 0
-24 22 0
-24 -23 0
-22 23 24 0
20 24 -25 0
-20 -24 -25 0
20 -24 25 0
-20 24 25 0
-26 4 0
-26 25 0
-4 -25 26 0
-27 -25 0
-27 26 0
25 -26 27 0
-28 -21 0
-28 2 0
21 -2 28 0
29 -27 0
29 -28 0
27 28 -29 0
-30 19 0
-30 29 0
-19 -29 30 0
-15 -30 -31 0
15 30 -31 0
-15 30 31 0
15 -30 31 0
-32 -10 0
-32 1 0
10 -1 32 0
33 32 0
33 27 0
-32 -27 -33 0
34 -9 -35 0
-34 9 -35 0
34 9 35 0
-34 -9 35 0
-36 -7 0
-36 -16 0
7 16 36 0
-37 35 0
-37 36 0
-35 -36 37 0
-39 -2 0
-39 38 0
2 -38 39 0
-40 -39 0
-40 2 0
39 -2 40 0
-40 2 -41 0
40 -2 -41 0
-40 -2 41 0
40 2 41 0
-42 -37 0
-42 41 0
37 -41 42 0
43 33 0
43 -42 0
-33 42 -43 0
-31 43 -44 0
31 -43 -44 0
-31 -43 44 0
31 43 44 0
-45 -7 -46 0
45 7 -46 0
-45 7 46 0
45 -7 46 0
-47 2 0
-47 -38 0
-2 38 47 0
-48 45 0
-48 -47 0
-45 47 48 0
49 48 0
49 -17 0
-48 17 -49 0
50 -21 0
50 16 0
21 -16 -50 0
-51 -6 0
-51 50 0
6 -50 51 0
52 49 0
52 -51 0
-49 51 -52 0
40 -27 -53 0
-40 27 -53 0
40 27 53 0
-40 -27 53 0
-54 53 0
-54 9 0
-53 -9 54 0
-55 52 0
-55 54 0
-52 -54 55 0
56 -46 0
56 -55 0
46 55 -56 0
-57 16 0
-57 -7 0
-16 7 57 0
-58 -57 0
-58 -23 0
57 23 58 0
-56 58 -59 0
56 -58 -59 0
-56 -58 59 0
56 58 59 0
-60 -1 0
-60 6 0
1 -6 60 0
-28 -60 -61 0
28 60 -61 0
-28 60 61 0
28 -60 61 0
62 -39 0
62 -50 0
39 50 -62 0
2 -62 -63 0
-2 62 -63 0
2 62 63 0
-2 -62 63 0
64 1 0
64 -63 0
-1 63 -64 0
-60 -64 -65 0
60 64 -65 0
-60 64 65 0
60 -64 65 0
66 -48 0
66 65 0
48 -65 -66 0
-67 1 0
-67 -4 0
-1 4 67 0
-66 -67 -68 0
66 67 -68 0
-66 67 68 0
66 -67 68 0
61 68 -69 0
-61 -68 -69 0
61 -68 69 0
-61 68 69 0
70 -59 0
70 69 0
59 -69 -70 0
71 -44 0
71 -70 0
44 70 -71 0
-53 -18 -65 45 0
27 -26 47 21 -57 67 0
12 23 -64 25 2 -24 0
-8 53 28 12 -17 0
66 14 -32 31 0
-20 -2 -28 -35 0
-57 -25 -67 28 0
48 55 -59 0
40 -32 -53 0
-1 14 -51 63 -56 0
-26 -51 0
16 18 9 13 62 48 0
71 8 0
-66 -4 -17 -2 0
-33 -2 -7 -64 0
-63 -2 -37 5 -51 0
-2 -9 15 3 6 13 0
-21 -15 -22 0
52 -37 14 0
-6 7 66 0
44 66 0
-37 -16 -13 -31 23 0
58 -3 -13 -12 0
44 70 54 -32 -22 60 0
71 -2 25 62 -54 55 0
-5 -37 -26 -63 0
-38 -58 -34 -15 0
-13 8 -22 43 -21 0
47 -58 14 0
-3 55 -8 -67 0
-3 48 0
28 -38 61 -23 0
-47 -29 33 0
-50 -69 6 14 1 0
70 71 69 -7 0
-67 31 54 0
24 23 40 -30 -64 -27 0
4 -65 0
6 16 71 0
-12 16 1 -44 0
-57 15 0
-66 51 -46 -47 0
-52 -23 53 0
-55 15 56 0
15 -28 -59 14 0
36 64 33 0
-61 5 0
-4 11 0
-15 -52 0
-7 -31 -44 -42 69 0
42 35 28 17 63 62 0
29 46 -37 -55 -64 0
-53 2 -14 42 -40 -67 0
-71 -61 0
-19 52 69 0
-27 -40 0
-33 17 -24 -2 0
-1 -7 60 -50 0
11 40 0
-37 13 -40 20 3 -70 0
71 0
